25
2 1 417
3 1 113
3 2 917
4 1 910
4 2 320
4 3 280
5 1 5
5 2 627
5 3 587
5 4 543
6 1 575
6 2 685
6 3 100
6 4 382
6 5 179
7 1 457
7 2 14
7 3 897
7 4 374
7 5 220
7 6 195
8 1 600
8 2 154
8 3 78
8 4 127
8 5 475
8 6 101
8 7 945
9 1 355
9 2 448
9 3 439
9 4 837
9 5 766
9 6 622
9 7 444
9 8 968
10 1 295
10 2 926
10 3 894
10 4 421
10 5 854
10 6 58
10 7 499
10 8 383
10 9 562
11 1 828
11 2 506
11 3 209
11 4 594
11 5 312
11 6 926
11 7 804
11 8 195
11 9 414
11 10 63
12 1 103
12 2 711
12 3 744
12 4 285
12 5 617
12 6 665
12 7 919
12 8 252
12 9 335
12 10 223
12 11 673
13 1 9
13 2 459
13 3 603
13 4 416
13 5 660
13 6 739
13 7 247
13 8 98
13 9 555
13 10 414
13 11 817
13 12 527
14 1 183
14 2 1000
14 3 344
14 4 515
14 5 209
14 6 443
14 7 82
14 8 472
14 9 353
14 10 378
14 11 895
14 12 340
14 13 47
15 1 519
15 2 232
15 3 981
15 4 64
15 5 399
15 6 17
15 7 419
15 8 562
15 9 4
15 10 19
15 11 540
15 12 223
15 13 22
15 14 508
16 1 146
16 2 451
16 3 733
16 4 275
16 5 492
16 6 795
16 7 780
16 8 331
16 9 669
16 10 58
16 11 331
16 12 844
16 13 484
16 14 770
16 15 390
17 1 136
17 2 699
17 3 979
17 4 246
17 5 810
17 6 762
17 7 536
17 8 337
17 9 310
17 10 417
17 11 331
17 12 8
17 13 501
17 14 810
17 15 161
17 16 935
18 1 65
18 2 977
18 3 174
18 4 212
18 5 790
18 6 844
18 7 86
18 8 352
18 9 68
18 10 109
18 11 599
18 12 717
18 13 167
18 14 648
18 15 730
18 16 114
18 17 94
19 1 314
19 2 974
19 3 578
19 4 108
19 5 258
19 6 505
19 7 583
19 8 222
19 9 161
19 10 850
19 11 192
19 12 223
19 13 993
19 14 734
19 15 900
19 16 67
19 17 185
19 18 27
20 1 169
20 2 687
20 3 342
20 4 993
20 5 910
20 6 542
20 7 875
20 8 282
20 9 426
20 10 469
20 11 184
20 12 349
20 13 551
20 14 660
20 15 264
20 16 253
20 17 8
20 18 826
20 19 870
21 1 16
21 2 224
21 3 866
21 4 617
21 5 990
21 6 122
21 7 601
21 8 643
21 9 922
21 10 627
21 11 409
21 12 715
21 13 658
21 14 903
21 15 795
21 16 910
21 17 679
21 18 569
21 19 249
21 20 238
22 1 907
22 2 398
22 3 927
22 4 860
22 5 473
22 6 254
22 7 993
22 8 745
22 9 398
22 10 272
22 11 680
22 12 932
22 13 356
22 14 534
22 15 377
22 16 749
22 17 990
22 18 741
22 19 333
22 20 628
22 21 448
23 1 643
23 2 769
23 3 398
23 4 91
23 5 223
23 6 477
23 7 174
23 8 561
23 9 895
23 10 221
23 11 240
23 12 660
23 13 214
23 14 511
23 15 530
23 16 715
23 17 858
23 18 549
23 19 603
23 20 382
23 21 884
23 22 437
24 1 246
24 2 80
24 3 505
24 4 946
24 5 56
24 6 490
24 7 903
24 8 422
24 9 669
24 10 818
24 11 829
24 12 637
24 13 477
24 14 757
24 15 980
24 16 661
24 17 993
24 18 342
24 19 437
24 20 64
24 21 218
24 22 143
24 23 630
